n= 20; m= 6;


74	15	51	4	36	61	65	25	55	70	8	54	47	78	95	32	58	62	48	17
60	62	9	59	28	38	81	53	86	77	19	25	16	47	90	35	73	9	24	74
46	16	38	16	19	24	32	29	1	26	30	35	29	45	46	24	42	47	4	38
32	46	41	47	22	36	26	41	42	38	65	55	31	45	49	56	40	41	22	23
41	62	61	53	76	69	55	76	56	48	30	52	46	29	45	47	52	24	24	18
46	16	38	16	19	24	32	29	1	26	30	35	29	45	46	24	42	47	4	38
 


